\ENCODING=ISO-8859-1
\Problem name: IloCplex

Minimize
 obj1: 15000 x(0)#0 + 15000 x(1)#1 + 15000 x(2)#2 + 15000 x(3)#3
       + 500 y(0)(0)#4 + 600 y(0)(1)#5 + 1000 y(0)(2)#6 + 1000 y(0)(3)#7
       + 500 y(1)(0)#8 + 600 y(1)(1)#9 + 1000 y(1)(2)#10 + 1000 y(1)(3)#11
       + 500 y(2)(0)#12 - 71400 y(2)(1)#13 + 1000 y(2)(2)#14 + 1000 y(2)(3)#15
       + 500 y(3)(0)#16 - 65400 y(3)(1)#17 + 1000 y(3)(2)#18 + 7000 y(3)(3)#19
Subject To
 c1:  x(0)#0 + y(0)(0)#4 + y(0)(1)#5 + y(0)(2)#6  = 1
 c2:  x(1)#1 + y(1)(0)#8 + y(1)(1)#9 + y(1)(2)#10  = 1
 c3:  x(2)#2 + y(2)(0)#12 + y(2)(1)#13 + y(2)(2)#14  = 1
 c4:  x(3)#3 + y(3)(0)#16 + y(3)(1)#17 + y(3)(2)#18  = 1
 c5:  x(0)#0 + y(0)(2)#6  = 1
 c6:  x(1)#1 + y(1)(2)#10  = 1
 c7:  x(2)#2 + y(2)(1)#13 + y(2)(3)#15  = 1
 c8:  x(3)#3 + y(3)(1)#17 + y(3)(3)#19  = 1
 c9:  y(0)(0)#4  = 0
 c10: y(0)(1)#5 + y(0)(3)#7  = 0
 c11: y(1)(0)#8  = 0
 c12: y(1)(1)#9 + y(1)(3)#11  = 0
 c13: y(2)(0)#12  = 0
 c14: y(2)(2)#14 - y(2)(3)#15  = 0
 c15: y(3)(0)#16  = 0
 c16: y(3)(2)#18 - y(3)(3)#19  = 0
 c17: y(0)(0)#4 + y(1)(0)#8 + y(2)(0)#12 + y(3)(0)#16 <= 4
 c18: y(0)(1)#5 + y(1)(1)#9 + y(2)(1)#13 + y(3)(1)#17 <= 1
 c19: y(0)(2)#6 + y(1)(2)#10 + y(2)(2)#14 + y(3)(2)#18 <= 3
 c20: y(0)(3)#7 + y(1)(3)#11 + y(2)(3)#15 + y(3)(3)#19 <= 2
 c21: 780 x(0)#0 + 450 y(0)(0)#4 + 780 y(0)(1)#5 + 780 y(0)(2)#6 >= 780
 c22: 780 x(1)#1 + 450 y(1)(0)#8 + 780 y(1)(1)#9 + 780 y(1)(2)#10 >= 780
 c23: 780 x(2)#2 + 450 y(2)(0)#12 + 780 y(2)(1)#13 + 780 y(2)(2)#14 >= 780
 c24: 780 x(3)#3 + 450 y(3)(0)#16 + 780 y(3)(1)#17 + 780 y(3)(2)#18 >= 780
 c25: 721 y(0)(0)#4 <= 0
 c26: 901 y(0)(1)#5 + 1021 y(0)(3)#7 <= 0
 c27: 721 y(1)(0)#8 <= 0
 c28: 901 y(1)(1)#9 + 1021 y(1)(3)#11 <= 0
 c29: 721 y(2)(0)#12 <= 0
 c30: 901 y(2)(2)#14 - 920 y(2)(3)#15 <= 0
 c31: 721 y(3)(0)#16 <= 0
 c32: 901 y(3)(2)#18 - 920 y(3)(3)#19 <= 0
 c33: - 720 y(0)(0)#4 <= 12000
 c34: - 900 y(0)(1)#5 - 1020 y(0)(3)#7 <= 12000
 c35: - 720 y(1)(0)#8 <= 12000
 c36: - 900 y(1)(1)#9 - 1020 y(1)(3)#11 <= 12000
 c37: - 720 y(2)(0)#12 <= 12000
 c38: - 900 y(2)(2)#14 + 920 y(2)(3)#15 <= 12000
 c39: - 720 y(3)(0)#16 <= 12000
 c40: - 900 y(3)(2)#18 + 920 y(3)(3)#19 <= 12000
 c41: y(0)(0)#4 + y(0)(1)#5 + y(0)(2)#6 <= 1
 c42: <= 1
 c43: <= 1
 c44: y(0)(3)#7 <= 1
 c45: y(1)(0)#8 + y(1)(1)#9 + y(1)(2)#10 <= 1
 c46: <= 1
 c47: <= 1
 c48: y(1)(3)#11 <= 1
 c49: y(2)(0)#12 + y(2)(1)#13 + y(2)(2)#14 <= 1
 c50: <= 1
 c51: <= 1
 c52: y(2)(3)#15 <= 1
 c53: y(3)(0)#16 + y(3)(1)#17 + y(3)(2)#18 <= 1
 c54: <= 1
 c55: <= 1
 c56: y(3)(3)#19 <= 1
 c57: <= 1
 c58: y(0)(0)#4 <= 1
 c59: y(0)(1)#5 + y(0)(3)#7 <= 1
 c60: y(0)(2)#6 <= 1
 c61: <= 1
 c62: y(1)(0)#8 <= 1
 c63: y(1)(1)#9 + y(1)(3)#11 <= 1
 c64: y(1)(2)#10 <= 1
 c65: <= 1
 c66: y(2)(0)#12 <= 1
 c67: y(2)(1)#13 + y(2)(3)#15 <= 1
 c68: y(2)(2)#14 <= 1
 c69: <= 1
 c70: y(3)(0)#16 <= 1
 c71: y(3)(1)#17 + y(3)(3)#19 <= 1
 c72: y(3)(2)#18 <= 1
Bounds
 0 <= x(0)#0 <= 1
 0 <= x(1)#1 <= 1
 0 <= x(2)#2 <= 1
 0 <= x(3)#3 <= 1
 0 <= y(0)(0)#4 <= 1
 0 <= y(0)(1)#5 <= 1
 0 <= y(0)(2)#6 <= 1
 0 <= y(0)(3)#7 <= 1
 0 <= y(1)(0)#8 <= 1
 0 <= y(1)(1)#9 <= 1
 0 <= y(1)(2)#10 <= 1
 0 <= y(1)(3)#11 <= 1
 0 <= y(2)(0)#12 <= 1
 0 <= y(2)(1)#13 <= 1
 0 <= y(2)(2)#14 <= 1
 0 <= y(2)(3)#15 <= 1
 0 <= y(3)(0)#16 <= 1
 0 <= y(3)(1)#17 <= 1
 0 <= y(3)(2)#18 <= 1
 0 <= y(3)(3)#19 <= 1
Binaries
 x(0)#0  x(1)#1  x(2)#2  x(3)#3  y(0)(0)#4  y(0)(1)#5  y(0)(2)#6  y(0)(3)#7 
 y(1)(0)#8  y(1)(1)#9  y(1)(2)#10  y(1)(3)#11  y(2)(0)#12  y(2)(1)#13 
 y(2)(2)#14  y(2)(3)#15  y(3)(0)#16  y(3)(1)#17  y(3)(2)#18  y(3)(3)#19 
End
